(set-info :source |printed by MathSAT|)
(declare-fun |.x{253}| () Int)
(declare-fun |.x{262}| () Int)
(declare-fun |.x{254}| () Int)
(declare-fun |.y{3}| () Int)
(declare-fun |.x{255}| () (Array Int Int))
(declare-fun |.x{263}| () (Array Int Int))
(declare-fun |.x{256}| () Int)
(declare-fun |.x{261}| () Int)
(declare-fun |.y{2}| () Int)
(declare-fun |.x{264}| () Int)
(declare-fun |.loc{5}| () Bool)
(declare-fun |.loc{9}| () Bool)
(declare-fun |.loc{6}| () Bool)
(declare-fun |.loc{10}| () Bool)
(declare-fun |.loc{7}| () Bool)
(declare-fun |.loc{11}| () Bool)
(declare-fun |.loc{8}| () Bool)
(declare-fun |.loc{12}| () Bool)
(declare-fun |.x{272}| () Int)
(declare-fun |.x{290}| () Int)
(define-fun .def_18 () Bool (! |.loc{5}| :next |.loc{9}|))
(define-fun .def_73 () Bool (not .def_18))
(define-fun .def_20 () Bool (! |.loc{6}| :next |.loc{10}|))
(define-fun .def_38 () Bool (not .def_20))
(define-fun .def_304 () Bool (and .def_38 .def_73))
(define-fun .def_22 () Bool (! |.loc{7}| :next |.loc{11}|))
(define-fun .def_44 () Bool (not .def_22))
(define-fun .def_305 () Bool (and .def_44 .def_304))
(define-fun .def_24 () Bool (! |.loc{8}| :next |.loc{12}|))
(define-fun .def_64 () Bool (not .def_24))
(define-fun .def_306 () Bool (! (and .def_64 .def_305) :init true))
(define-fun .def_279 () Bool (= |.x{261}| 0))
(define-fun .def_14 () Int (! |.x{256}| :next |.x{261}|))
(define-fun .def_277 () Bool (= .def_14 |.x{264}|))
(define-fun .def_278 () Bool (and .def_73 .def_277))
(define-fun .def_280 () Bool (and .def_278 .def_279))
(define-fun .def_10 () Int (! |.x{254}| :next |.y{3}|))
(define-fun .def_66 () Bool (<= .def_14 .def_10))
(define-fun .def_281 () Bool (and .def_66 .def_280))
(define-fun .def_273 () Int (* (- 1) |.x{261}|))
(define-fun .def_274 () Int (+ .def_14 .def_273))
(define-fun .def_275 () Bool (= .def_274 (- 1)))
(define-fun .def_29 () Int (* (- 1) |.x{272}|))
(define-fun .def_267 () Int (+ .def_14 .def_29))
(define-fun .def_8 () Int (! |.x{253}| :next |.x{262}|))
(define-fun .def_268 () Int (+ .def_8 .def_267))
(define-fun .def_269 () Bool (= .def_268 0))
(define-fun .def_16 () Int (! |.y{2}| :next |.x{264}|))
(define-fun .def_264 () Bool (<= .def_16 .def_14))
(define-fun .def_265 () Bool (not .def_264))
(define-fun .def_12 () (Array Int Int) (! |.x{255}| :next |.x{263}|))
(define-fun .def_261 () Int (select .def_12 |.x{272}|))
(define-fun .def_262 () Bool (= .def_261 49))
(define-fun .def_259 () Bool (= .def_16 |.x{264}|))
(define-fun .def_260 () Bool (and .def_18 .def_259))
(define-fun .def_263 () Bool (and .def_260 .def_262))
(define-fun .def_266 () Bool (and .def_263 .def_265))
(define-fun .def_270 () Bool (and .def_266 .def_269))
(define-fun .def_47 () Bool (<= |.x{272}| 0))
(define-fun .def_48 () Bool (not .def_47))
(define-fun .def_46 () Bool (<= .def_8 0))
(define-fun .def_49 () Bool (or .def_46 .def_48))
(define-fun .def_271 () Bool (and .def_49 .def_270))
(define-fun .def_52 () Bool (not .def_46))
(define-fun .def_272 () Bool (and .def_52 .def_271))
(define-fun .def_276 () Bool (and .def_272 .def_275))
(define-fun .def_282 () Bool (or .def_276 .def_281))
(define-fun .def_256 () Bool (and .def_24 .def_38))
(define-fun .def_257 () Bool (and .def_44 .def_256))
(define-fun .def_258 () Bool (and |.loc{9}| .def_257))
(define-fun .def_283 () Bool (and .def_258 .def_282))
(define-fun .def_71 () Bool (= |.y{3}| 0))
(define-fun .def_33 () Bool (= .def_14 |.x{261}|))
(define-fun .def_103 () Bool (and .def_33 .def_71))
(define-fun .def_104 () Bool (and .def_18 .def_103))
(define-fun .def_251 () Bool (and .def_20 .def_104))
(define-fun .def_252 () Bool (and .def_22 .def_251))
(define-fun .def_96 () Bool (not |.loc{9}|))
(define-fun .def_253 () Bool (and .def_96 .def_252))
(define-fun .def_254 () Bool (and .def_66 .def_253))
(define-fun .def_255 () Bool (and .def_64 .def_254))
(define-fun .def_284 () Bool (or .def_255 .def_283))
(define-fun .def_105 () Bool (= .def_12 |.x{263}|))
(define-fun .def_285 () Bool (and .def_105 .def_284))
(define-fun .def_238 () (Array Int Int) (store .def_12 |.x{272}| 49))
(define-fun .def_239 () Bool (= |.x{263}| .def_238))
(define-fun .def_30 () Int (+ .def_10 .def_29))
(define-fun .def_31 () Int (+ .def_8 .def_30))
(define-fun .def_32 () Bool (= .def_31 0))
(define-fun .def_240 () Bool (and .def_32 .def_239))
(define-fun .def_241 () Bool (and .def_33 .def_240))
(define-fun .def_242 () Bool (and .def_24 .def_241))
(define-fun .def_243 () Bool (and .def_73 .def_242))
(define-fun .def_244 () Bool (and .def_38 .def_243))
(define-fun .def_245 () Bool (and .def_44 .def_244))
(define-fun .def_246 () Bool (and .def_49 .def_245))
(define-fun .def_247 () Bool (and .def_52 .def_246))
(define-fun .def_248 () Bool (and .def_96 .def_247))
(define-fun .def_56 () Int (* (- 1) |.y{3}|))
(define-fun .def_57 () Int (+ .def_10 .def_56))
(define-fun .def_58 () Bool (= .def_57 (- 1)))
(define-fun .def_249 () Bool (and .def_58 .def_248))
(define-fun .def_67 () Bool (not .def_66))
(define-fun .def_250 () Bool (and .def_67 .def_249))
(define-fun .def_286 () Bool (or .def_250 .def_285))
(define-fun .def_54 () Bool (not |.loc{10}|))
(define-fun .def_236 () Bool (and |.loc{12}| .def_54))
(define-fun .def_287 () Bool (and .def_236 .def_286))
(define-fun .def_60 () Bool (not |.loc{11}|))
(define-fun .def_288 () Bool (and .def_60 .def_287))
(define-fun .def_131 () Bool (and .def_103 .def_105))
(define-fun .def_132 () Bool (and .def_20 .def_131))
(define-fun .def_228 () Bool (and .def_22 .def_132))
(define-fun .def_229 () Bool (and .def_73 .def_228))
(define-fun .def_230 () Bool (and |.loc{9}| .def_229))
(define-fun .def_231 () Bool (and |.loc{10}| .def_230))
(define-fun .def_232 () Bool (and |.loc{11}| .def_231))
(define-fun .def_233 () Bool (and .def_66 .def_232))
(define-fun .def_62 () Bool (not |.loc{12}|))
(define-fun .def_234 () Bool (and .def_62 .def_233))
(define-fun .def_235 () Bool (and .def_64 .def_234))
(define-fun .def_289 () Bool (or .def_235 .def_288))
(define-fun .def_219 () (Array Int Int) (store .def_12 |.x{272}| 48))
(define-fun .def_220 () Bool (= |.x{263}| .def_219))
(define-fun .def_34 () Bool (and .def_32 .def_33))
(define-fun .def_115 () Bool (and .def_18 .def_34))
(define-fun .def_116 () Bool (and .def_20 .def_115))
(define-fun .def_214 () Bool (and .def_22 .def_116))
(define-fun .def_215 () Bool (and .def_49 .def_214))
(define-fun .def_216 () Bool (and |.loc{9}| .def_215))
(define-fun .def_217 () Bool (and .def_52 .def_216))
(define-fun .def_221 () Bool (and .def_217 .def_220))
(define-fun .def_222 () Bool (and |.loc{10}| .def_221))
(define-fun .def_223 () Bool (and |.loc{11}| .def_222))
(define-fun .def_224 () Bool (and .def_58 .def_223))
(define-fun .def_225 () Bool (and .def_62 .def_224))
(define-fun .def_226 () Bool (and .def_64 .def_225))
(define-fun .def_227 () Bool (and .def_67 .def_226))
(define-fun .def_290 () Bool (or .def_227 .def_289))
(define-fun .def_106 () Bool (and .def_104 .def_105))
(define-fun .def_206 () Bool (and .def_22 .def_106))
(define-fun .def_207 () Bool (and .def_38 .def_206))
(define-fun .def_208 () Bool (and |.loc{10}| .def_207))
(define-fun .def_209 () Bool (and |.loc{11}| .def_208))
(define-fun .def_210 () Bool (and .def_96 .def_209))
(define-fun .def_211 () Bool (and .def_66 .def_210))
(define-fun .def_212 () Bool (and .def_62 .def_211))
(define-fun .def_213 () Bool (and .def_64 .def_212))
(define-fun .def_291 () Bool (or .def_213 .def_290))
(define-fun .def_190 () (Array Int Int) (store .def_12 |.x{272}| 47))
(define-fun .def_191 () Bool (= |.x{263}| .def_190))
(define-fun .def_192 () Bool (and .def_32 .def_191))
(define-fun .def_193 () Bool (and .def_33 .def_192))
(define-fun .def_194 () Bool (and .def_20 .def_193))
(define-fun .def_195 () Bool (and .def_22 .def_194))
(define-fun .def_196 () Bool (and .def_73 .def_195))
(define-fun .def_197 () Bool (and .def_49 .def_196))
(define-fun .def_198 () Bool (and .def_52 .def_197))
(define-fun .def_199 () Bool (and |.loc{10}| .def_198))
(define-fun .def_200 () Bool (and |.loc{11}| .def_199))
(define-fun .def_201 () Bool (and .def_96 .def_200))
(define-fun .def_202 () Bool (and .def_58 .def_201))
(define-fun .def_203 () Bool (and .def_62 .def_202))
(define-fun .def_204 () Bool (and .def_64 .def_203))
(define-fun .def_205 () Bool (and .def_67 .def_204))
(define-fun .def_292 () Bool (or .def_205 .def_291))
(define-fun .def_180 () Bool (and .def_22 .def_131))
(define-fun .def_181 () Bool (and .def_73 .def_180))
(define-fun .def_182 () Bool (and .def_38 .def_181))
(define-fun .def_183 () Bool (and |.loc{9}| .def_182))
(define-fun .def_184 () Bool (and |.loc{11}| .def_183))
(define-fun .def_185 () Bool (and .def_54 .def_184))
(define-fun .def_186 () Bool (and .def_66 .def_185))
(define-fun .def_187 () Bool (and .def_62 .def_186))
(define-fun .def_188 () Bool (and .def_64 .def_187))
(define-fun .def_293 () Bool (or .def_188 .def_292))
(define-fun .def_167 () (Array Int Int) (store .def_12 |.x{272}| 46))
(define-fun .def_168 () Bool (= |.x{263}| .def_167))
(define-fun .def_165 () Bool (and .def_22 .def_115))
(define-fun .def_169 () Bool (and .def_165 .def_168))
(define-fun .def_170 () Bool (and .def_38 .def_169))
(define-fun .def_171 () Bool (and .def_49 .def_170))
(define-fun .def_172 () Bool (and |.loc{9}| .def_171))
(define-fun .def_173 () Bool (and .def_52 .def_172))
(define-fun .def_174 () Bool (and |.loc{11}| .def_173))
(define-fun .def_175 () Bool (and .def_54 .def_174))
(define-fun .def_176 () Bool (and .def_58 .def_175))
(define-fun .def_177 () Bool (and .def_62 .def_176))
(define-fun .def_178 () Bool (and .def_64 .def_177))
(define-fun .def_179 () Bool (and .def_67 .def_178))
(define-fun .def_294 () Bool (or .def_179 .def_293))
(define-fun .def_157 () Bool (and .def_20 .def_106))
(define-fun .def_158 () Bool (and .def_44 .def_157))
(define-fun .def_159 () Bool (and |.loc{11}| .def_158))
(define-fun .def_160 () Bool (and .def_96 .def_159))
(define-fun .def_161 () Bool (and .def_54 .def_160))
(define-fun .def_162 () Bool (and .def_66 .def_161))
(define-fun .def_163 () Bool (and .def_62 .def_162))
(define-fun .def_164 () Bool (and .def_64 .def_163))
(define-fun .def_295 () Bool (or .def_164 .def_294))
(define-fun .def_145 () (Array Int Int) (store .def_12 |.x{272}| 45))
(define-fun .def_146 () Bool (= |.x{263}| .def_145))
(define-fun .def_141 () Bool (and .def_22 .def_34))
(define-fun .def_142 () Bool (and .def_73 .def_141))
(define-fun .def_143 () Bool (and .def_38 .def_142))
(define-fun .def_147 () Bool (and .def_143 .def_146))
(define-fun .def_148 () Bool (and .def_49 .def_147))
(define-fun .def_149 () Bool (and .def_52 .def_148))
(define-fun .def_150 () Bool (and |.loc{11}| .def_149))
(define-fun .def_151 () Bool (and .def_96 .def_150))
(define-fun .def_152 () Bool (and .def_54 .def_151))
(define-fun .def_153 () Bool (and .def_58 .def_152))
(define-fun .def_154 () Bool (and .def_62 .def_153))
(define-fun .def_155 () Bool (and .def_64 .def_154))
(define-fun .def_156 () Bool (and .def_67 .def_155))
(define-fun .def_296 () Bool (or .def_156 .def_295))
(define-fun .def_133 () Bool (and .def_73 .def_132))
(define-fun .def_134 () Bool (and .def_44 .def_133))
(define-fun .def_135 () Bool (and |.loc{9}| .def_134))
(define-fun .def_136 () Bool (and |.loc{10}| .def_135))
(define-fun .def_137 () Bool (and .def_66 .def_136))
(define-fun .def_138 () Bool (and .def_62 .def_137))
(define-fun .def_139 () Bool (and .def_60 .def_138))
(define-fun .def_140 () Bool (and .def_64 .def_139))
(define-fun .def_297 () Bool (or .def_140 .def_296))
(define-fun .def_124 () (Array Int Int) (store .def_12 |.x{272}| 44))
(define-fun .def_125 () Bool (= |.x{263}| .def_124))
(define-fun .def_117 () Bool (and .def_44 .def_116))
(define-fun .def_118 () Bool (and .def_49 .def_117))
(define-fun .def_119 () Bool (and |.loc{9}| .def_118))
(define-fun .def_120 () Bool (and .def_52 .def_119))
(define-fun .def_121 () Bool (and |.loc{10}| .def_120))
(define-fun .def_122 () Bool (and .def_58 .def_121))
(define-fun .def_126 () Bool (and .def_122 .def_125))
(define-fun .def_127 () Bool (and .def_62 .def_126))
(define-fun .def_128 () Bool (and .def_60 .def_127))
(define-fun .def_129 () Bool (and .def_64 .def_128))
(define-fun .def_130 () Bool (and .def_67 .def_129))
(define-fun .def_298 () Bool (or .def_130 .def_297))
(define-fun .def_107 () Bool (and .def_38 .def_106))
(define-fun .def_108 () Bool (and .def_44 .def_107))
(define-fun .def_109 () Bool (and |.loc{10}| .def_108))
(define-fun .def_110 () Bool (and .def_96 .def_109))
(define-fun .def_111 () Bool (and .def_66 .def_110))
(define-fun .def_112 () Bool (and .def_62 .def_111))
(define-fun .def_113 () Bool (and .def_60 .def_112))
(define-fun .def_114 () Bool (and .def_64 .def_113))
(define-fun .def_299 () Bool (or .def_114 .def_298))
(define-fun .def_86 () (Array Int Int) (store .def_12 |.x{272}| 43))
(define-fun .def_87 () Bool (= |.x{263}| .def_86))
(define-fun .def_88 () Bool (and .def_32 .def_87))
(define-fun .def_89 () Bool (and .def_33 .def_88))
(define-fun .def_90 () Bool (and .def_20 .def_89))
(define-fun .def_91 () Bool (and .def_73 .def_90))
(define-fun .def_92 () Bool (and .def_44 .def_91))
(define-fun .def_93 () Bool (and .def_49 .def_92))
(define-fun .def_94 () Bool (and .def_52 .def_93))
(define-fun .def_95 () Bool (and |.loc{10}| .def_94))
(define-fun .def_97 () Bool (and .def_95 .def_96))
(define-fun .def_98 () Bool (and .def_58 .def_97))
(define-fun .def_99 () Bool (and .def_62 .def_98))
(define-fun .def_100 () Bool (and .def_60 .def_99))
(define-fun .def_101 () Bool (and .def_64 .def_100))
(define-fun .def_102 () Bool (and .def_67 .def_101))
(define-fun .def_300 () Bool (or .def_102 .def_299))
(define-fun .def_35 () Bool (= .def_8 |.x{262}|))
(define-fun .def_301 () Bool (and .def_35 .def_300))
(define-fun .def_79 () Bool (<= |.x{262}| 0))
(define-fun .def_80 () Bool (not .def_79))
(define-fun .def_69 () Bool (<= |.x{261}| 0))
(define-fun .def_70 () Bool (not .def_69))
(define-fun .def_72 () Bool (and .def_70 .def_71))
(define-fun .def_74 () Bool (and .def_72 .def_73))
(define-fun .def_75 () Bool (and .def_38 .def_74))
(define-fun .def_76 () Bool (and .def_44 .def_75))
(define-fun .def_77 () Bool (and |.loc{9}| .def_76))
(define-fun .def_78 () Bool (and .def_54 .def_77))
(define-fun .def_81 () Bool (and .def_78 .def_80))
(define-fun .def_82 () Bool (and .def_60 .def_81))
(define-fun .def_83 () Bool (and .def_62 .def_82))
(define-fun .def_84 () Bool (and .def_64 .def_83))
(define-fun .def_302 () Bool (or .def_84 .def_301))
(define-fun .def_41 () (Array Int Int) (store .def_12 |.x{272}| 42))
(define-fun .def_42 () Bool (= |.x{263}| .def_41))
(define-fun .def_36 () Bool (and .def_34 .def_35))
(define-fun .def_37 () Bool (and .def_18 .def_36))
(define-fun .def_39 () Bool (and .def_37 .def_38))
(define-fun .def_43 () Bool (and .def_39 .def_42))
(define-fun .def_45 () Bool (and .def_43 .def_44))
(define-fun .def_50 () Bool (and .def_45 .def_49))
(define-fun .def_51 () Bool (and |.loc{9}| .def_50))
(define-fun .def_53 () Bool (and .def_51 .def_52))
(define-fun .def_55 () Bool (and .def_53 .def_54))
(define-fun .def_59 () Bool (and .def_55 .def_58))
(define-fun .def_61 () Bool (and .def_59 .def_60))
(define-fun .def_63 () Bool (and .def_61 .def_62))
(define-fun .def_65 () Bool (and .def_63 .def_64))
(define-fun .def_68 () Bool (and .def_65 .def_67))
(define-fun .def_303 () Bool (! (or .def_68 .def_302) :trans true))
(define-fun .def_307 () Int (! |.x{290}| :next |.xpv{1}|))
(define-fun .def_322 () Bool (and .def_18 .def_38))
(define-fun .def_323 () Bool (and .def_44 .def_322))
(define-fun .def_324 () Bool (and .def_24 .def_323))
(define-fun .def_318 () Int (select .def_12 .def_307))
(define-fun .def_319 () Bool (= .def_318 49))
(define-fun .def_320 () Bool (not .def_319))
(define-fun .def_311 () Int (* (- 1) .def_307))
(define-fun .def_312 () Int (+ .def_14 .def_311))
(define-fun .def_313 () Int (+ .def_8 .def_312))
(define-fun .def_314 () Bool (= .def_313 0))
(define-fun .def_315 () Bool (and .def_265 .def_314))
(define-fun .def_308 () Bool (<= .def_307 0))
(define-fun .def_309 () Bool (not .def_308))
(define-fun .def_310 () Bool (or .def_46 .def_309))
(define-fun .def_316 () Bool (and .def_310 .def_315))
(define-fun .def_317 () Bool (and .def_52 .def_316))
(define-fun .def_321 () Bool (and .def_317 .def_320))
(define-fun .def_325 () Bool (and .def_321 .def_324))
(define-fun .def_327 () Bool (! (not .def_325) :invar-property 0))
(assert true)
